p cnf 1548 2448
-1  -2 0 
1 2 0 
-2 -327 3 0 
-2 327 -3 0 
2 -328 3 0 
2 328 -3 0 
-3 4 0 
3  -4 0 
-4 -331 5 0 
-4 331 -5 0 
4 -332 5 0 
4 332 -5 0 
-5  -6 0 
5 6 0 
-6  -7 0 
6 7 0 
-7  -8 0 
7 8 0 
-8  -9 0 
8 9 0 
-9 10 0 
9  -10 0 
-10 -343 11 0 
-10 343 -11 0 
10 -344 11 0 
10 344 -11 0 
-11 -345 12 0 
-11 345 -12 0 
11 -346 12 0 
11 346 -12 0 
-12 -347 13 0 
-12 347 -13 0 
12 -348 13 0 
12 348 -13 0 
-13 14 0 
13  -14 0 
-14  -15 0 
14 15 0 
-15 16 0 
15  -16 0 
-16 17 0 
16  -17 0 
-17 18 0 
17  -18 0 
-1 19 0 
1  -19 0 
-19 -2  -20 0 
-19 2  -20 0 
19 -2 20 0 
19 2 20 0 
-20 -3 21 0 
-20 3 21 0 
20 -3 21 0 
20 3  -21 0 
-21 -4 22 0 
-21 4  -22 0 
21 -4  -22 0 
21 4 22 0 
-22 -5 -373 23 0 
-22 -5 373 -23 0 
-22 5 -374 23 0 
-22 5 374 -23 0 
22 -5 -375 23 0 
22 -5 375 -23 0 
22 5 -376 23 0 
22 5 376 -23 0 
-23 -6  -24 0 
-23 6  -24 0 
23 -6 24 0 
23 6 24 0 
-24 -7 25 0 
-24 7  -25 0 
24 -7 25 0 
24 7  -25 0 
-25 -8  -26 0 
-25 8  -26 0 
25 -8 26 0 
25 8 26 0 
-26 -9 -389 27 0 
-26 -9 389 -27 0 
-26 9 -390 27 0 
-26 9 390 -27 0 
26 -9 -391 27 0 
26 -9 391 -27 0 
26 9 -392 27 0 
26 9 392 -27 0 
-27 -10 28 0 
-27 10 28 0 
27 -10 28 0 
27 10  -28 0 
-28 -11 -397 29 0 
-28 -11 397 -29 0 
-28 11 -398 29 0 
-28 11 398 -29 0 
28 -11 -399 29 0 
28 -11 399 -29 0 
28 11 -400 29 0 
28 11 400 -29 0 
-29 -12 30 0 
-29 12 30 0 
29 -12  -30 0 
29 12  -30 0 
-30 -13  -31 0 
-30 13 31 0 
30 -13 31 0 
30 13 31 0 
-31 -14  -32 0 
-31 14 32 0 
31 -14  -32 0 
31 14  -32 0 
-32 -15  -33 0 
-32 15 33 0 
32 -15 33 0 
32 15  -33 0 
-33 -16  -34 0 
-33 16 34 0 
33 -16 34 0 
33 16 34 0 
-34 -17  -35 0 
-34 17 35 0 
34 -17  -35 0 
34 17  -35 0 
-35 -18 -425 36 0 
-35 -18 425 -36 0 
-35 18 -426 36 0 
-35 18 426 -36 0 
35 -18 -427 36 0 
35 -18 427 -36 0 
35 18 -428 36 0 
35 18 428 -36 0 
-19  -37 0 
19 37 0 
-37 -20 38 0 
-37 20 38 0 
37 -20  -38 0 
37 20 38 0 
-38 -21 -435 39 0 
-38 -21 435 -39 0 
-38 21 -436 39 0 
-38 21 436 -39 0 
38 -21 -437 39 0 
38 -21 437 -39 0 
38 21 -438 39 0 
38 21 438 -39 0 
-39 -22 40 0 
-39 22  -40 0 
39 -22  -40 0 
39 22 40 0 
-40 -23 41 0 
-40 23  -41 0 
40 -23  -41 0 
40 23 41 0 
-41 -24 -447 42 0 
-41 -24 447 -42 0 
-41 24 -448 42 0 
-41 24 448 -42 0 
41 -24 -449 42 0 
41 -24 449 -42 0 
41 24 -450 42 0 
41 24 450 -42 0 
-42 -25 43 0 
-42 25 43 0 
42 -25  -43 0 
42 25 43 0 
-43 -26 -455 44 0 
-43 -26 455 -44 0 
-43 26 -456 44 0 
-43 26 456 -44 0 
43 -26 -457 44 0 
43 -26 457 -44 0 
43 26 -458 44 0 
43 26 458 -44 0 
-44 -27  -45 0 
-44 27  -45 0 
44 -27  -45 0 
44 27 45 0 
-45 -28  -46 0 
-45 28 46 0 
45 -28  -46 0 
45 28  -46 0 
-46 -29  -47 0 
-46 29  -47 0 
46 -29 47 0 
46 29 47 0 
-47 -30  -48 0 
-47 30  -48 0 
47 -30 48 0 
47 30  -48 0 
-48 -31  -49 0 
-48 31  -49 0 
48 -31  -49 0 
48 31 49 0 
-49 -32 50 0 
-49 32 50 0 
49 -32  -50 0 
49 32 50 0 
-50 -33  -51 0 
-50 33 51 0 
50 -33 51 0 
50 33 51 0 
-51 -34 52 0 
-51 34  -52 0 
51 -34  -52 0 
51 34  -52 0 
-52 -35 -491 53 0 
-52 -35 491 -53 0 
-52 35 -492 53 0 
-52 35 492 -53 0 
52 -35 -493 53 0 
52 -35 493 -53 0 
52 35 -494 53 0 
52 35 494 -53 0 
-53 -36  -54 0 
-53 36  -54 0 
53 -36 54 0 
53 36 54 0 
-37  -55 0 
37 55 0 
-55 -38 56 0 
-55 38  -56 0 
55 -38 56 0 
55 38  -56 0 
-56 -39 -505 57 0 
-56 -39 505 -57 0 
-56 39 -506 57 0 
-56 39 506 -57 0 
56 -39 -507 57 0 
56 -39 507 -57 0 
56 39 -508 57 0 
56 39 508 -57 0 
-57 -40  -58 0 
-57 40 58 0 
57 -40  -58 0 
57 40  -58 0 
-58 -41  -59 0 
-58 41 59 0 
58 -41 59 0 
58 41 59 0 
-59 -42 60 0 
-59 42 60 0 
59 -42  -60 0 
59 42 60 0 
-60 -43 61 0 
-60 43  -61 0 
60 -43  -61 0 
60 43  -61 0 
-61 -44 -525 62 0 
-61 -44 525 -62 0 
-61 44 -526 62 0 
-61 44 526 -62 0 
61 -44 -527 62 0 
61 -44 527 -62 0 
61 44 -528 62 0 
61 44 528 -62 0 
-62 -45 -529 63 0 
-62 -45 529 -63 0 
-62 45 -530 63 0 
-62 45 530 -63 0 
62 -45 -531 63 0 
62 -45 531 -63 0 
62 45 -532 63 0 
62 45 532 -63 0 
-63 -46 -533 64 0 
-63 -46 533 -64 0 
-63 46 -534 64 0 
-63 46 534 -64 0 
63 -46 -535 64 0 
63 -46 535 -64 0 
63 46 -536 64 0 
63 46 536 -64 0 
-64 -47 -537 65 0 
-64 -47 537 -65 0 
-64 47 -538 65 0 
-64 47 538 -65 0 
64 -47 -539 65 0 
64 -47 539 -65 0 
64 47 -540 65 0 
64 47 540 -65 0 
-65 -48 -541 66 0 
-65 -48 541 -66 0 
-65 48 -542 66 0 
-65 48 542 -66 0 
65 -48 -543 66 0 
65 -48 543 -66 0 
65 48 -544 66 0 
65 48 544 -66 0 
-66 -49 67 0 
-66 49  -67 0 
66 -49  -67 0 
66 49  -67 0 
-67 -50  -68 0 
-67 50 68 0 
67 -50 68 0 
67 50  -68 0 
-68 -51 69 0 
-68 51 69 0 
68 -51  -69 0 
68 51 69 0 
-69 -52 70 0 
-69 52 70 0 
69 -52 70 0 
69 52  -70 0 
-70 -53 71 0 
-70 53 71 0 
70 -53 71 0 
70 53  -71 0 
-71 -54  -72 0 
-71 54  -72 0 
71 -54 72 0 
71 54  -72 0 
-55 73 0 
55  -73 0 
-73 -56  -74 0 
-73 56  -74 0 
73 -56 74 0 
73 56  -74 0 
-74 -57 75 0 
-74 57 75 0 
74 -57  -75 0 
74 57  -75 0 
-75 -58  -76 0 
-75 58  -76 0 
75 -58  -76 0 
75 58 76 0 
-76 -59 -583 77 0 
-76 -59 583 -77 0 
-76 59 -584 77 0 
-76 59 584 -77 0 
76 -59 -585 77 0 
76 -59 585 -77 0 
76 59 -586 77 0 
76 59 586 -77 0 
-77 -60  -78 0 
-77 60 78 0 
77 -60  -78 0 
77 60  -78 0 
-78 -61  -79 0 
-78 61 79 0 
78 -61 79 0 
78 61  -79 0 
-79 -62 80 0 
-79 62  -80 0 
79 -62  -80 0 
79 62  -80 0 
-80 -63 81 0 
-80 63  -81 0 
80 -63 81 0 
80 63 81 0 
-81 -64 -603 82 0 
-81 -64 603 -82 0 
-81 64 -604 82 0 
-81 64 604 -82 0 
81 -64 -605 82 0 
81 -64 605 -82 0 
81 64 -606 82 0 
81 64 606 -82 0 
-82 -65 -607 83 0 
-82 -65 607 -83 0 
-82 65 -608 83 0 
-82 65 608 -83 0 
82 -65 -609 83 0 
82 -65 609 -83 0 
82 65 -610 83 0 
82 65 610 -83 0 
-83 -66  -84 0 
-83 66 84 0 
83 -66 84 0 
83 66 84 0 
-84 -67  -85 0 
-84 67 85 0 
84 -67  -85 0 
84 67 85 0 
-85 -68  -86 0 
-85 68 86 0 
85 -68 86 0 
85 68  -86 0 
-86 -69  -87 0 
-86 69  -87 0 
86 -69 87 0 
86 69  -87 0 
-87 -70  -88 0 
-87 70  -88 0 
87 -70  -88 0 
87 70 88 0 
-88 -71  -89 0 
-88 71  -89 0 
88 -71  -89 0 
88 71 89 0 
-89 -72 90 0 
-89 72  -90 0 
89 -72 90 0 
89 72 90 0 
-73  -91 0 
73 91 0 
-91 -74 92 0 
-91 74  -92 0 
91 -74 92 0 
91 74  -92 0 
-92 -75 93 0 
-92 75  -93 0 
92 -75  -93 0 
92 75  -93 0 
-93 -76  -94 0 
-93 76 94 0 
93 -76 94 0 
93 76  -94 0 
-94 -77  -95 0 
-94 77 95 0 
94 -77  -95 0 
94 77  -95 0 
-95 -78 -657 96 0 
-95 -78 657 -96 0 
-95 78 -658 96 0 
-95 78 658 -96 0 
95 -78 -659 96 0 
95 -78 659 -96 0 
95 78 -660 96 0 
95 78 660 -96 0 
-96 -79 97 0 
-96 79  -97 0 
96 -79 97 0 
96 79 97 0 
-97 -80  -98 0 
-97 80  -98 0 
97 -80  -98 0 
97 80 98 0 
-98 -81 -669 99 0 
-98 -81 669 -99 0 
-98 81 -670 99 0 
-98 81 670 -99 0 
98 -81 -671 99 0 
98 -81 671 -99 0 
98 81 -672 99 0 
98 81 672 -99 0 
-99 -82 100 0 
-99 82  -100 0 
99 -82  -100 0 
99 82  -100 0 
-100 -83  -101 0 
-100 83  -101 0 
100 -83 101 0 
100 83 101 0 
-101 -84 102 0 
-101 84  -102 0 
101 -84  -102 0 
101 84 102 0 
-102 -85  -103 0 
-102 85 103 0 
102 -85  -103 0 
102 85  -103 0 
-103 -86 104 0 
-103 86  -104 0 
103 -86 104 0 
103 86 104 0 
-104 -87  -105 0 
-104 87 105 0 
104 -87 105 0 
104 87 105 0 
-105 -88 -697 106 0 
-105 -88 697 -106 0 
-105 88 -698 106 0 
-105 88 698 -106 0 
105 -88 -699 106 0 
105 -88 699 -106 0 
105 88 -700 106 0 
105 88 700 -106 0 
-106 -89  -107 0 
-106 89 107 0 
106 -89 107 0 
106 89 107 0 
-107 -90 108 0 
-107 90  -108 0 
107 -90  -108 0 
107 90  -108 0 
-91 109 0 
91  -109 0 
-109 -92  -110 0 
-109 92 110 0 
109 -92  -110 0 
109 92 110 0 
-110 -93 -715 111 0 
-110 -93 715 -111 0 
-110 93 -716 111 0 
-110 93 716 -111 0 
110 -93 -717 111 0 
110 -93 717 -111 0 
110 93 -718 111 0 
110 93 718 -111 0 
-111 -94  -112 0 
-111 94  -112 0 
111 -94 112 0 
111 94  -112 0 
-112 -95 113 0 
-112 95 113 0 
112 -95  -113 0 
112 95 113 0 
-113 -96 114 0 
-113 96  -114 0 
113 -96 114 0 
113 96 114 0 
-114 -97 115 0 
-114 97  -115 0 
114 -97 115 0 
114 97  -115 0 
-115 -98 116 0 
-115 98 116 0 
115 -98  -116 0 
115 98  -116 0 
-116 -99 -739 117 0 
-116 -99 739 -117 0 
-116 99 -740 117 0 
-116 99 740 -117 0 
116 -99 -741 117 0 
116 -99 741 -117 0 
116 99 -742 117 0 
116 99 742 -117 0 
-117 -100  -118 0 
-117 100 118 0 
117 -100  -118 0 
117 100  -118 0 
-118 -101 -747 119 0 
-118 -101 747 -119 0 
-118 101 -748 119 0 
-118 101 748 -119 0 
118 -101 -749 119 0 
118 -101 749 -119 0 
118 101 -750 119 0 
118 101 750 -119 0 
-119 -102 -751 120 0 
-119 -102 751 -120 0 
-119 102 -752 120 0 
-119 102 752 -120 0 
119 -102 -753 120 0 
119 -102 753 -120 0 
119 102 -754 120 0 
119 102 754 -120 0 
-120 -103 121 0 
-120 103 121 0 
120 -103  -121 0 
120 103  -121 0 
-121 -104 -759 122 0 
-121 -104 759 -122 0 
-121 104 -760 122 0 
-121 104 760 -122 0 
121 -104 -761 122 0 
121 -104 761 -122 0 
121 104 -762 122 0 
121 104 762 -122 0 
-122 -105  -123 0 
-122 105  -123 0 
122 -105 123 0 
122 105  -123 0 
-123 -106 124 0 
-123 106  -124 0 
123 -106 124 0 
123 106 124 0 
-124 -107  -125 0 
-124 107  -125 0 
124 -107  -125 0 
124 107 125 0 
-125 -108  -126 0 
-125 108  -126 0 
125 -108 126 0 
125 108 126 0 
-109 127 0 
109  -127 0 
-127 -110  -128 0 
-127 110 128 0 
127 -110  -128 0 
127 110 128 0 
-128 -111 -785 129 0 
-128 -111 785 -129 0 
-128 111 -786 129 0 
-128 111 786 -129 0 
128 -111 -787 129 0 
128 -111 787 -129 0 
128 111 -788 129 0 
128 111 788 -129 0 
-129 -112  -130 0 
-129 112 130 0 
129 -112 130 0 
129 112 130 0 
-130 -113 -793 131 0 
-130 -113 793 -131 0 
-130 113 -794 131 0 
-130 113 794 -131 0 
130 -113 -795 131 0 
130 -113 795 -131 0 
130 113 -796 131 0 
130 113 796 -131 0 
-131 -114 -797 132 0 
-131 -114 797 -132 0 
-131 114 -798 132 0 
-131 114 798 -132 0 
131 -114 -799 132 0 
131 -114 799 -132 0 
131 114 -800 132 0 
131 114 800 -132 0 
-132 -115  -133 0 
-132 115  -133 0 
132 -115 133 0 
132 115 133 0 
-133 -116 134 0 
-133 116  -134 0 
133 -116 134 0 
133 116 134 0 
-134 -117 -809 135 0 
-134 -117 809 -135 0 
-134 117 -810 135 0 
-134 117 810 -135 0 
134 -117 -811 135 0 
134 -117 811 -135 0 
134 117 -812 135 0 
134 117 812 -135 0 
-135 -118 -813 136 0 
-135 -118 813 -136 0 
-135 118 -814 136 0 
-135 118 814 -136 0 
135 -118 -815 136 0 
135 -118 815 -136 0 
135 118 -816 136 0 
135 118 816 -136 0 
-136 -119 137 0 
-136 119 137 0 
136 -119  -137 0 
136 119  -137 0 
-137 -120 138 0 
-137 120  -138 0 
137 -120  -138 0 
137 120 138 0 
-138 -121 -825 139 0 
-138 -121 825 -139 0 
-138 121 -826 139 0 
-138 121 826 -139 0 
138 -121 -827 139 0 
138 -121 827 -139 0 
138 121 -828 139 0 
138 121 828 -139 0 
-139 -122  -140 0 
-139 122 140 0 
139 -122  -140 0 
139 122 140 0 
-140 -123  -141 0 
-140 123 141 0 
140 -123 141 0 
140 123 141 0 
-141 -124  -142 0 
-141 124 142 0 
141 -124 142 0 
141 124 142 0 
-142 -125 -841 143 0 
-142 -125 841 -143 0 
-142 125 -842 143 0 
-142 125 842 -143 0 
142 -125 -843 143 0 
142 -125 843 -143 0 
142 125 -844 143 0 
142 125 844 -143 0 
-143 -126  -144 0 
-143 126  -144 0 
143 -126 144 0 
143 126  -144 0 
-127 -849 145 0 
-127 849 -145 0 
127 -850 145 0 
127 850 -145 0 
-145 -128 146 0 
-145 128 146 0 
145 -128  -146 0 
145 128 146 0 
-146 -129 147 0 
-146 129 147 0 
146 -129 147 0 
146 129  -147 0 
-147 -130  -148 0 
-147 130  -148 0 
147 -130 148 0 
147 130  -148 0 
-148 -131  -149 0 
-148 131 149 0 
148 -131  -149 0 
148 131  -149 0 
-149 -132  -150 0 
-149 132 150 0 
149 -132 150 0 
149 132  -150 0 
-150 -133 151 0 
-150 133  -151 0 
150 -133  -151 0 
150 133  -151 0 
-151 -134 152 0 
-151 134 152 0 
151 -134 152 0 
151 134  -152 0 
-152 -135 153 0 
-152 135 153 0 
152 -135 153 0 
152 135  -153 0 
-153 -136  -154 0 
-153 136 154 0 
153 -136  -154 0 
153 136  -154 0 
-154 -137  -155 0 
-154 137 155 0 
154 -137  -155 0 
154 137  -155 0 
-155 -138  -156 0 
-155 138  -156 0 
155 -138  -156 0 
155 138 156 0 
-156 -139 -895 157 0 
-156 -139 895 -157 0 
-156 139 -896 157 0 
-156 139 896 -157 0 
156 -139 -897 157 0 
156 -139 897 -157 0 
156 139 -898 157 0 
156 139 898 -157 0 
-157 -140 158 0 
-157 140 158 0 
157 -140 158 0 
157 140  -158 0 
-158 -141 159 0 
-158 141 159 0 
158 -141  -159 0 
158 141 159 0 
-159 -142 -907 160 0 
-159 -142 907 -160 0 
-159 142 -908 160 0 
-159 142 908 -160 0 
159 -142 -909 160 0 
159 -142 909 -160 0 
159 142 -910 160 0 
159 142 910 -160 0 
-160 -143  -161 0 
-160 143 161 0 
160 -143  -161 0 
160 143 161 0 
-161 -144  -162 0 
-161 144 162 0 
161 -144  -162 0 
161 144 162 0 
-145 163 0 
145  -163 0 
-163 -146 164 0 
-163 146 164 0 
163 -146  -164 0 
163 146  -164 0 
-164 -147 165 0 
-164 147 165 0 
164 -147  -165 0 
164 147 165 0 
-165 -148 -929 166 0 
-165 -148 929 -166 0 
-165 148 -930 166 0 
-165 148 930 -166 0 
165 -148 -931 166 0 
165 -148 931 -166 0 
165 148 -932 166 0 
165 148 932 -166 0 
-166 -149 167 0 
-166 149  -167 0 
166 -149 167 0 
166 149  -167 0 
-167 -150  -168 0 
-167 150  -168 0 
167 -150 168 0 
167 150  -168 0 
-168 -151  -169 0 
-168 151  -169 0 
168 -151  -169 0 
168 151 169 0 
-169 -152 170 0 
-169 152  -170 0 
169 -152 170 0 
169 152 170 0 
-170 -153 -949 171 0 
-170 -153 949 -171 0 
-170 153 -950 171 0 
-170 153 950 -171 0 
170 -153 -951 171 0 
170 -153 951 -171 0 
170 153 -952 171 0 
170 153 952 -171 0 
-171 -154  -172 0 
-171 154  -172 0 
171 -154  -172 0 
171 154 172 0 
-172 -155 173 0 
-172 155  -173 0 
172 -155 173 0 
172 155 173 0 
-173 -156 174 0 
-173 156  -174 0 
173 -156  -174 0 
173 156  -174 0 
-174 -157  -175 0 
-174 157  -175 0 
174 -157 175 0 
174 157  -175 0 
-175 -158  -176 0 
-175 158  -176 0 
175 -158  -176 0 
175 158 176 0 
-176 -159  -177 0 
-176 159 177 0 
176 -159 177 0 
176 159 177 0 
-177 -160 178 0 
-177 160  -178 0 
177 -160 178 0 
177 160 178 0 
-178 -161  -179 0 
-178 161  -179 0 
178 -161 179 0 
178 161 179 0 
-179 -162  -180 0 
-179 162 180 0 
179 -162  -180 0 
179 162  -180 0 
-163 181 0 
163  -181 0 
-181 -164 182 0 
-181 164  -182 0 
181 -164  -182 0 
181 164  -182 0 
-182 -165 183 0 
-182 165  -183 0 
182 -165  -183 0 
182 165  -183 0 
-183 -166  -184 0 
-183 166 184 0 
183 -166  -184 0 
183 166  -184 0 
-184 -167  -185 0 
-184 167 185 0 
184 -167  -185 0 
184 167 185 0 
-185 -168  -186 0 
-185 168 186 0 
185 -168 186 0 
185 168  -186 0 
-186 -169  -187 0 
-186 169  -187 0 
186 -169 187 0 
186 169 187 0 
-187 -170 188 0 
-187 170 188 0 
187 -170  -188 0 
187 170  -188 0 
-188 -171 -1019 189 0 
-188 -171 1019 -189 0 
-188 171 -1020 189 0 
-188 171 1020 -189 0 
188 -171 -1021 189 0 
188 -171 1021 -189 0 
188 171 -1022 189 0 
188 171 1022 -189 0 
-189 -172 190 0 
-189 172 190 0 
189 -172  -190 0 
189 172 190 0 
-190 -173  -191 0 
-190 173 191 0 
190 -173 191 0 
190 173  -191 0 
-191 -174 -1031 192 0 
-191 -174 1031 -192 0 
-191 174 -1032 192 0 
-191 174 1032 -192 0 
191 -174 -1033 192 0 
191 -174 1033 -192 0 
191 174 -1034 192 0 
191 174 1034 -192 0 
-192 -175 -1035 193 0 
-192 -175 1035 -193 0 
-192 175 -1036 193 0 
-192 175 1036 -193 0 
192 -175 -1037 193 0 
192 -175 1037 -193 0 
192 175 -1038 193 0 
192 175 1038 -193 0 
-193 -176 194 0 
-193 176 194 0 
193 -176  -194 0 
193 176 194 0 
-194 -177 195 0 
-194 177  -195 0 
194 -177  -195 0 
194 177  -195 0 
-195 -178 196 0 
-195 178  -196 0 
195 -178 196 0 
195 178 196 0 
-196 -179  -197 0 
-196 179  -197 0 
196 -179 197 0 
196 179  -197 0 
-197 -180  -198 0 
-197 180 198 0 
197 -180 198 0 
197 180 198 0 
-181  -199 0 
181 199 0 
-199 -182 200 0 
-199 182  -200 0 
199 -182  -200 0 
199 182  -200 0 
-200 -183  -201 0 
-200 183  -201 0 
200 -183 201 0 
200 183 201 0 
-201 -184  -202 0 
-201 184 202 0 
201 -184  -202 0 
201 184 202 0 
-202 -185  -203 0 
-202 185 203 0 
202 -185 203 0 
202 185 203 0 
-203 -186  -204 0 
-203 186  -204 0 
203 -186 204 0 
203 186 204 0 
-204 -187 -1081 205 0 
-204 -187 1081 -205 0 
-204 187 -1082 205 0 
-204 187 1082 -205 0 
204 -187 -1083 205 0 
204 -187 1083 -205 0 
204 187 -1084 205 0 
204 187 1084 -205 0 
-205 -188 206 0 
-205 188 206 0 
205 -188  -206 0 
205 188 206 0 
-206 -189  -207 0 
-206 189 207 0 
206 -189 207 0 
206 189 207 0 
-207 -190  -208 0 
-207 190 208 0 
207 -190 208 0 
207 190  -208 0 
-208 -191  -209 0 
-208 191  -209 0 
208 -191  -209 0 
208 191 209 0 
-209 -192 210 0 
-209 192 210 0 
209 -192  -210 0 
209 192  -210 0 
-210 -193 -1105 211 0 
-210 -193 1105 -211 0 
-210 193 -1106 211 0 
-210 193 1106 -211 0 
210 -193 -1107 211 0 
210 -193 1107 -211 0 
210 193 -1108 211 0 
210 193 1108 -211 0 
-211 -194 212 0 
-211 194 212 0 
211 -194  -212 0 
211 194 212 0 
-212 -195  -213 0 
-212 195 213 0 
212 -195  -213 0 
212 195 213 0 
-213 -196 214 0 
-213 196 214 0 
213 -196  -214 0 
213 196  -214 0 
-214 -197 215 0 
-214 197  -215 0 
214 -197  -215 0 
214 197 215 0 
-215 -198  -216 0 
-215 198  -216 0 
215 -198 216 0 
215 198 216 0 
-199  -217 0 
199 217 0 
-217 -200 218 0 
-217 200  -218 0 
217 -200  -218 0 
217 200  -218 0 
-218 -201  -219 0 
-218 201 219 0 
218 -201 219 0 
218 201  -219 0 
-219 -202 220 0 
-219 202  -220 0 
219 -202  -220 0 
219 202  -220 0 
-220 -203  -221 0 
-220 203 221 0 
220 -203 221 0 
220 203  -221 0 
-221 -204  -222 0 
-221 204 222 0 
221 -204 222 0 
221 204  -222 0 
-222 -205 -1151 223 0 
-222 -205 1151 -223 0 
-222 205 -1152 223 0 
-222 205 1152 -223 0 
222 -205 -1153 223 0 
222 -205 1153 -223 0 
222 205 -1154 223 0 
222 205 1154 -223 0 
-223 -206 224 0 
-223 206  -224 0 
223 -206  -224 0 
223 206 224 0 
-224 -207 -1159 225 0 
-224 -207 1159 -225 0 
-224 207 -1160 225 0 
-224 207 1160 -225 0 
224 -207 -1161 225 0 
224 -207 1161 -225 0 
224 207 -1162 225 0 
224 207 1162 -225 0 
-225 -208 -1163 226 0 
-225 -208 1163 -226 0 
-225 208 -1164 226 0 
-225 208 1164 -226 0 
225 -208 -1165 226 0 
225 -208 1165 -226 0 
225 208 -1166 226 0 
225 208 1166 -226 0 
-226 -209  -227 0 
-226 209 227 0 
226 -209  -227 0 
226 209 227 0 
-227 -210 -1171 228 0 
-227 -210 1171 -228 0 
-227 210 -1172 228 0 
-227 210 1172 -228 0 
227 -210 -1173 228 0 
227 -210 1173 -228 0 
227 210 -1174 228 0 
227 210 1174 -228 0 
-228 -211 -1175 229 0 
-228 -211 1175 -229 0 
-228 211 -1176 229 0 
-228 211 1176 -229 0 
228 -211 -1177 229 0 
228 -211 1177 -229 0 
228 211 -1178 229 0 
228 211 1178 -229 0 
-229 -212 -1179 230 0 
-229 -212 1179 -230 0 
-229 212 -1180 230 0 
-229 212 1180 -230 0 
229 -212 -1181 230 0 
229 -212 1181 -230 0 
229 212 -1182 230 0 
229 212 1182 -230 0 
-230 -213 -1183 231 0 
-230 -213 1183 -231 0 
-230 213 -1184 231 0 
-230 213 1184 -231 0 
230 -213 -1185 231 0 
230 -213 1185 -231 0 
230 213 -1186 231 0 
230 213 1186 -231 0 
-231 -214 232 0 
-231 214  -232 0 
231 -214 232 0 
231 214 232 0 
-232 -215  -233 0 
-232 215 233 0 
232 -215 233 0 
232 215 233 0 
-233 -216  -234 0 
-233 216 234 0 
233 -216  -234 0 
233 216 234 0 
-217  -235 0 
217 235 0 
-235 -218 236 0 
-235 218  -236 0 
235 -218 236 0 
235 218 236 0 
-236 -219  -237 0 
-236 219 237 0 
236 -219 237 0 
236 219  -237 0 
-237 -220  -238 0 
-237 220 238 0 
237 -220  -238 0 
237 220  -238 0 
-238 -221  -239 0 
-238 221 239 0 
238 -221 239 0 
238 221 239 0 
-239 -222 240 0 
-239 222  -240 0 
239 -222  -240 0 
239 222  -240 0 
-240 -223 241 0 
-240 223  -241 0 
240 -223  -241 0 
240 223  -241 0 
-241 -224 242 0 
-241 224 242 0 
241 -224 242 0 
241 224  -242 0 
-242 -225  -243 0 
-242 225  -243 0 
242 -225 243 0 
242 225  -243 0 
-243 -226 244 0 
-243 226  -244 0 
243 -226  -244 0 
243 226  -244 0 
-244 -227 245 0 
-244 227 245 0 
244 -227 245 0 
244 227  -245 0 
-245 -228  -246 0 
-245 228  -246 0 
245 -228 246 0 
245 228  -246 0 
-246 -229  -247 0 
-246 229 247 0 
246 -229 247 0 
246 229  -247 0 
-247 -230 248 0 
-247 230 248 0 
247 -230 248 0 
247 230  -248 0 
-248 -231  -249 0 
-248 231  -249 0 
248 -231 249 0 
248 231 249 0 
-249 -232 250 0 
-249 232 250 0 
249 -232 250 0 
249 232  -250 0 
-250 -233  -251 0 
-250 233  -251 0 
250 -233  -251 0 
250 233 251 0 
-251 -234  -252 0 
-251 234  -252 0 
251 -234 252 0 
251 234  -252 0 
-235  -253 0 
235 253 0 
-253 -236 -1271 254 0 
-253 -236 1271 -254 0 
-253 236 -1272 254 0 
-253 236 1272 -254 0 
253 -236 -1273 254 0 
253 -236 1273 -254 0 
253 236 -1274 254 0 
253 236 1274 -254 0 
-254 -237  -255 0 
-254 237  -255 0 
254 -237 255 0 
254 237  -255 0 
-255 -238  -256 0 
-255 238 256 0 
255 -238 256 0 
255 238  -256 0 
-256 -239  -257 0 
-256 239 257 0 
256 -239 257 0 
256 239  -257 0 
-257 -240 -1287 258 0 
-257 -240 1287 -258 0 
-257 240 -1288 258 0 
-257 240 1288 -258 0 
257 -240 -1289 258 0 
257 -240 1289 -258 0 
257 240 -1290 258 0 
257 240 1290 -258 0 
-258 -241 259 0 
-258 241  -259 0 
258 -241  -259 0 
258 241 259 0 
-259 -242  -260 0 
-259 242  -260 0 
259 -242 260 0 
259 242  -260 0 
-260 -243 -1299 261 0 
-260 -243 1299 -261 0 
-260 243 -1300 261 0 
-260 243 1300 -261 0 
260 -243 -1301 261 0 
260 -243 1301 -261 0 
260 243 -1302 261 0 
260 243 1302 -261 0 
-261 -244 262 0 
-261 244  -262 0 
261 -244 262 0 
261 244  -262 0 
-262 -245 263 0 
-262 245  -263 0 
262 -245 263 0 
262 245  -263 0 
-263 -246 264 0 
-263 246  -264 0 
263 -246  -264 0 
263 246  -264 0 
-264 -247 265 0 
-264 247 265 0 
264 -247  -265 0 
264 247 265 0 
-265 -248 -1319 266 0 
-265 -248 1319 -266 0 
-265 248 -1320 266 0 
-265 248 1320 -266 0 
265 -248 -1321 266 0 
265 -248 1321 -266 0 
265 248 -1322 266 0 
265 248 1322 -266 0 
-266 -249  -267 0 
-266 249  -267 0 
266 -249  -267 0 
266 249 267 0 
-267 -250 268 0 
-267 250 268 0 
267 -250  -268 0 
267 250  -268 0 
-268 -251  -269 0 
-268 251  -269 0 
268 -251  -269 0 
268 251 269 0 
-269 -252 -1335 270 0 
-269 -252 1335 -270 0 
-269 252 -1336 270 0 
-269 252 1336 -270 0 
269 -252 -1337 270 0 
269 -252 1337 -270 0 
269 252 -1338 270 0 
269 252 1338 -270 0 
-253 271 0 
253  -271 0 
-271 -254 -1341 272 0 
-271 -254 1341 -272 0 
-271 254 -1342 272 0 
-271 254 1342 -272 0 
271 -254 -1343 272 0 
271 -254 1343 -272 0 
271 254 -1344 272 0 
271 254 1344 -272 0 
-272 -255 273 0 
-272 255 273 0 
272 -255  -273 0 
272 255 273 0 
-273 -256 -1349 274 0 
-273 -256 1349 -274 0 
-273 256 -1350 274 0 
-273 256 1350 -274 0 
273 -256 -1351 274 0 
273 -256 1351 -274 0 
273 256 -1352 274 0 
273 256 1352 -274 0 
-274 -257  -275 0 
-274 257 275 0 
274 -257 275 0 
274 257  -275 0 
-275 -258 -1357 276 0 
-275 -258 1357 -276 0 
-275 258 -1358 276 0 
-275 258 1358 -276 0 
275 -258 -1359 276 0 
275 -258 1359 -276 0 
275 258 -1360 276 0 
275 258 1360 -276 0 
-276 -259 277 0 
-276 259  -277 0 
276 -259 277 0 
276 259 277 0 
-277 -260 -1365 278 0 
-277 -260 1365 -278 0 
-277 260 -1366 278 0 
-277 260 1366 -278 0 
277 -260 -1367 278 0 
277 -260 1367 -278 0 
277 260 -1368 278 0 
277 260 1368 -278 0 
-278 -261 -1369 279 0 
-278 -261 1369 -279 0 
-278 261 -1370 279 0 
-278 261 1370 -279 0 
278 -261 -1371 279 0 
278 -261 1371 -279 0 
278 261 -1372 279 0 
278 261 1372 -279 0 
-279 -262 -1373 280 0 
-279 -262 1373 -280 0 
-279 262 -1374 280 0 
-279 262 1374 -280 0 
279 -262 -1375 280 0 
279 -262 1375 -280 0 
279 262 -1376 280 0 
279 262 1376 -280 0 
-280 -263 281 0 
-280 263 281 0 
280 -263  -281 0 
280 263  -281 0 
-281 -264 -1381 282 0 
-281 -264 1381 -282 0 
-281 264 -1382 282 0 
-281 264 1382 -282 0 
281 -264 -1383 282 0 
281 -264 1383 -282 0 
281 264 -1384 282 0 
281 264 1384 -282 0 
-282 -265  -283 0 
-282 265 283 0 
282 -265  -283 0 
282 265 283 0 
-283 -266 284 0 
-283 266 284 0 
283 -266  -284 0 
283 266  -284 0 
-284 -267 -1393 285 0 
-284 -267 1393 -285 0 
-284 267 -1394 285 0 
-284 267 1394 -285 0 
284 -267 -1395 285 0 
284 -267 1395 -285 0 
284 267 -1396 285 0 
284 267 1396 -285 0 
-285 -268 -1397 286 0 
-285 -268 1397 -286 0 
-285 268 -1398 286 0 
-285 268 1398 -286 0 
285 -268 -1399 286 0 
285 -268 1399 -286 0 
285 268 -1400 286 0 
285 268 1400 -286 0 
-286 -269  -287 0 
-286 269  -287 0 
286 -269  -287 0 
286 269 287 0 
-287 -270 288 0 
-287 270  -288 0 
287 -270 288 0 
287 270 288 0 
-271  -289 0 
271 289 0 
-289 -272 -1411 290 0 
-289 -272 1411 -290 0 
-289 272 -1412 290 0 
-289 272 1412 -290 0 
289 -272 -1413 290 0 
289 -272 1413 -290 0 
289 272 -1414 290 0 
289 272 1414 -290 0 
-290 -273 291 0 
-290 273 291 0 
290 -273  -291 0 
290 273 291 0 
-291 -274 -1419 292 0 
-291 -274 1419 -292 0 
-291 274 -1420 292 0 
-291 274 1420 -292 0 
291 -274 -1421 292 0 
291 -274 1421 -292 0 
291 274 -1422 292 0 
291 274 1422 -292 0 
-292 -275 293 0 
-292 275  -293 0 
292 -275  -293 0 
292 275 293 0 
-293 -276  -294 0 
-293 276 294 0 
293 -276  -294 0 
293 276 294 0 
-294 -277  -295 0 
-294 277  -295 0 
294 -277  -295 0 
294 277 295 0 
-295 -278 296 0 
-295 278 296 0 
295 -278 296 0 
295 278  -296 0 
-296 -279 297 0 
-296 279  -297 0 
296 -279 297 0 
296 279  -297 0 
-297 -280  -298 0 
-297 280  -298 0 
297 -280 298 0 
297 280 298 0 
-298 -281 -1447 299 0 
-298 -281 1447 -299 0 
-298 281 -1448 299 0 
-298 281 1448 -299 0 
298 -281 -1449 299 0 
298 -281 1449 -299 0 
298 281 -1450 299 0 
298 281 1450 -299 0 
-299 -282 300 0 
-299 282 300 0 
299 -282 300 0 
299 282  -300 0 
-300 -283 301 0 
-300 283  -301 0 
300 -283  -301 0 
300 283  -301 0 
-301 -284 302 0 
-301 284 302 0 
301 -284  -302 0 
301 284 302 0 
-302 -285 303 0 
-302 285  -303 0 
302 -285 303 0 
302 285  -303 0 
-303 -286 304 0 
-303 286  -304 0 
303 -286  -304 0 
303 286 304 0 
-304 -287 305 0 
-304 287  -305 0 
304 -287 305 0 
304 287 305 0 
-305 -288  -306 0 
-305 288 306 0 
305 -288 306 0 
305 288  -306 0 
-289 -1479 307 0 
-289 1479 -307 0 
289 -1480 307 0 
289 1480 -307 0 
-307 -290 308 0 
-307 290  -308 0 
307 -290 308 0 
307 290 308 0 
-308 -291  -309 0 
-308 291  -309 0 
308 -291 309 0 
308 291  -309 0 
-309 -292 -1489 310 0 
-309 -292 1489 -310 0 
-309 292 -1490 310 0 
-309 292 1490 -310 0 
309 -292 -1491 310 0 
309 -292 1491 -310 0 
309 292 -1492 310 0 
309 292 1492 -310 0 
-310 -293  -311 0 
-310 293  -311 0 
310 -293  -311 0 
310 293 311 0 
-311 -294  -312 0 
-311 294 312 0 
311 -294  -312 0 
311 294  -312 0 
-312 -295  -313 0 
-312 295 313 0 
312 -295 313 0 
312 295 313 0 
-313 -296 314 0 
-313 296  -314 0 
313 -296  -314 0 
313 296 314 0 
-314 -297 -1509 315 0 
-314 -297 1509 -315 0 
-314 297 -1510 315 0 
-314 297 1510 -315 0 
314 -297 -1511 315 0 
314 -297 1511 -315 0 
314 297 -1512 315 0 
314 297 1512 -315 0 
-315 -298 -1513 316 0 
-315 -298 1513 -316 0 
-315 298 -1514 316 0 
-315 298 1514 -316 0 
315 -298 -1515 316 0 
315 -298 1515 -316 0 
315 298 -1516 316 0 
315 298 1516 -316 0 
-316 -299  -317 0 
-316 299  -317 0 
316 -299 317 0 
316 299 317 0 
-317 -300 318 0 
-317 300 318 0 
317 -300  -318 0 
317 300  -318 0 
-318 -301  -319 0 
-318 301 319 0 
318 -301  -319 0 
318 301  -319 0 
-319 -302 320 0 
-319 302 320 0 
319 -302  -320 0 
319 302  -320 0 
-320 -303  -321 0 
-320 303  -321 0 
320 -303  -321 0 
320 303 321 0 
-321 -304 322 0 
-321 304 322 0 
321 -304  -322 0 
321 304 322 0 
-322 -305 323 0 
-322 305  -323 0 
322 -305  -323 0 
322 305 323 0 
-323 -306 324 0 
-323 306 324 0 
323 -306  -324 0 
323 306 324 0 

324 0
